(set-option :produce-models true); benchmark generated from python API
(set-info :status unknown)
(declare-fun l_0_0_1 () Real)
(declare-fun l_0_0_3 () Real)
(declare-fun l_0_0_6 () Real)
(declare-fun l_0_0_10 () Real)
(declare-fun l_0_0_11 () Real)
(declare-fun l_0_0_13 () Real)
(declare-fun l_0_0_16 () Real)
(declare-fun l_0_0_20 () Real)
(declare-fun l_0_0_21 () Real)
(declare-fun l_0_0_23 () Real)
(declare-fun l_0_0_26 () Real)
(declare-fun l_0_0_30 () Real)
(assert
 false)
(assert
 (>= l_0_0_1 0.0))
(assert
 (>= l_0_0_3 0.0))
(assert
 (>= l_0_0_6 0.0))
(assert
 (>= l_0_0_10 0.0))
(assert
 (>= l_0_0_11 0.0))
(assert
 (>= l_0_0_13 0.0))
(assert
 (>= l_0_0_16 0.0))
(assert
 (>= l_0_0_20 0.0))
(assert
 (>= l_0_0_21 0.0))
(assert
 (>= l_0_0_23 0.0))
(assert
 (>= l_0_0_26 0.0))
(assert
 (>= l_0_0_30 0.0))
(check-sat)
(get-model)